100
100
3000 3000 3000 3000 3000 3000 3000 3000 3000 3000 3000 3000 3000 3000 3000 3000 3000 3000 3000 3000 3000 3000 3000 3000 3000 3000 3000 3000 3000 3000 3000 3000 3000 3000 3000 3000 3000 3000 3000 3000 3000 3000 3000 3000 3000 3000 3000 3000 3000 3000 3000 3000 3000 3000 3000 3000 3000 3000 3000 3000 3000 3000 3000 3000 3000 3000 3000 3000 3000 3000 3000 3000 3000 3000 3000 3000 3000 3000 3000 3000 3000 3000 3000 3000 3000 3000 3000 3000 3000 3000 3000 3000 3000 3000 3000 3000 3000 3000 3000 3000
0 16 1
0 22 2
0 28 0
0 34 3
0 36 1
0 41 2
0 43 4
0 62 1
0 73 3
0 80 0
1 11 4
1 32 1
1 34 0
1 35 3
1 36 4
1 46 1
1 52 3
1 60 2
1 74 3
1 76 0
2 12 3
2 17 2
2 32 3
2 43 2
2 54 2
2 55 4
2 61 1
2 73 4
2 79 1
2 83 0
3 1 0
3 18 0
3 20 3
3 21 4
3 30 0
3 36 2
3 50 1
3 52 3
3 60 4
3 77 2
4 8 2
4 20 3
4 21 4
4 34 4
4 39 4
4 62 4
4 76 1
4 88 4
4 96 0
4 97 4
5 21 3
5 48 4
5 58 3
5 71 2
5 72 3
5 78 4
5 91 3
5 94 4
5 95 0
5 99 1
6 2 1
6 23 1
6 24 2
6 29 2
6 39 3
6 50 0
6 52 3
6 65 3
6 67 1
6 86 4
7 15 1
7 32 3
7 34 1
7 45 0
7 52 3
7 59 4
7 63 4
7 70 0
7 95 1
7 96 2
8 2 2
8 3 1
8 7 2
8 28 0
8 30 0
8 47 1
8 48 2
8 79 1
8 80 4
8 95 1
9 5 4
9 6 2
9 22 2
9 33 0
9 48 0
9 59 4
9 67 3
9 76 2
9 77 2
9 91 3
10 3 4
10 19 2
10 20 0
10 21 3
10 41 2
10 50 2
10 57 2
10 58 2
10 78 2
10 84 3
11 9 1
11 23 4
11 24 4
11 25 0
11 27 1
11 30 2
11 33 4
11 66 1
11 68 3
11 73 1
12 5 4
12 23 0
12 25 3
12 38 4
12 45 4
12 49 1
12 63 2
12 69 1
12 82 3
12 96 1
13 14 0
13 17 2
13 18 3
13 35 2
13 39 0
13 62 0
13 63 2
13 79 2
13 88 2
13 94 2
14 1 2
14 5 0
14 7 2
14 24 4
14 45 4
14 47 0
14 48 1
14 57 2
14 61 2
14 92 2
15 14 0
15 17 2
15 26 4
15 51 0
15 62 4
15 64 2
15 78 0
15 83 4
15 97 3
15 98 4
16 7 0
16 11 4
16 15 2
16 16 2
16 25 2
16 41 1
16 42 3
16 66 3
16 77 1
16 96 0
17 10 1
17 26 1
17 31 1
17 47 0
17 51 0
17 59 3
17 68 4
17 77 4
17 81 4
17 92 3
18 6 0
18 11 0
18 19 4
18 36 4
18 53 3
18 58 0
18 62 1
18 67 4
18 79 3
18 89 1
19 3 0
19 15 2
19 19 1
19 24 4
19 25 3
19 39 0
19 56 4
19 63 3
19 66 4
19 84 0
20 2 0
20 6 3
20 18 0
20 22 2
20 36 2
20 59 4
20 63 4
20 66 3
20 72 3
20 89 3
21 5 2
21 16 4
21 17 1
21 23 2
21 25 3
21 42 2
21 58 3
21 60 4
21 64 3
21 95 1
22 6 3
22 10 4
22 18 1
22 19 1
22 41 3
22 52 0
22 73 4
22 91 2
22 92 3
22 98 4
23 0 0
23 11 4
23 12 3
23 20 4
23 40 3
23 43 4
23 60 0
23 63 1
23 93 4
23 98 2
24 0 0
24 6 3
24 19 4
24 31 1
24 33 4
24 45 4
24 47 4
24 49 4
24 73 1
24 78 0
25 35 1
25 45 0
25 47 3
25 51 1
25 60 2
25 61 1
25 63 2
25 70 2
25 84 0
25 91 2
26 35 2
26 42 4
26 46 0
26 63 0
26 65 2
26 67 1
26 84 4
26 89 3
26 92 1
26 99 2
27 8 1
27 15 2
27 27 0
27 43 4
27 44 4
27 59 0
27 71 1
27 85 4
27 86 0
27 95 0
28 11 4
28 35 3
28 56 2
28 74 2
28 77 3
28 79 0
28 81 4
28 89 0
28 90 4
28 92 1
29 7 0
29 12 3
29 18 0
29 20 3
29 23 4
29 25 1
29 41 0
29 52 2
29 91 1
29 94 4
30 30 1
30 34 2
30 42 2
30 46 3
30 78 3
30 80 3
30 83 0
30 92 0
30 95 2
30 97 0
31 33 3
31 42 0
31 55 4
31 60 3
31 62 1
31 64 4
31 73 3
31 81 1
31 83 4
31 97 3
32 2 4
32 5 4
32 11 1
32 18 2
32 46 3
32 50 4
32 55 2
32 73 3
32 91 1
32 97 1
33 1 1
33 13 3
33 19 1
33 37 3
33 56 3
33 67 4
33 68 1
33 69 1
33 89 1
33 90 4
34 8 1
34 9 3
34 12 3
34 20 3
34 26 4
34 43 4
34 57 1
34 61 4
34 62 3
34 88 4
35 15 4
35 25 0
35 27 1
35 40 1
35 56 2
35 59 3
35 64 1
35 69 2
35 91 3
35 98 2
36 4 4
36 12 0
36 18 2
36 30 2
36 32 4
36 59 3
36 73 4
36 80 1
36 88 0
36 97 1
37 5 2
37 6 3
37 36 3
37 51 4
37 59 1
37 64 0
37 80 4
37 81 2
37 86 1
37 92 0
38 27 1
38 34 3
38 36 2
38 39 2
38 44 0
38 55 0
38 64 1
38 71 4
38 87 3
38 93 3
39 6 2
39 7 2
39 11 0
39 26 1
39 50 0
39 55 1
39 58 0
39 63 0
39 78 0
39 89 0
40 5 0
40 18 2
40 19 1
40 34 2
40 46 2
40 47 1
40 60 2
40 63 0
40 80 1
40 94 1
41 1 4
41 5 3
41 7 1
41 21 3
41 22 2
41 29 4
41 48 2
41 80 3
41 85 1
41 95 0
42 0 3
42 22 1
42 27 4
42 59 2
42 64 2
42 65 3
42 69 1
42 73 4
42 75 2
42 88 3
43 0 4
43 9 4
43 14 0
43 38 4
43 69 4
43 75 0
43 82 3
43 86 3
43 92 2
43 98 2
44 3 1
44 20 0
44 31 1
44 35 0
44 42 2
44 46 4
44 61 4
44 71 4
44 72 1
44 96 3
45 11 1
45 12 4
45 27 1
45 33 0
45 43 4
45 61 4
45 82 0
45 84 1
45 86 2
45 89 2
46 15 0
46 27 3
46 29 0
46 37 3
46 58 3
46 68 1
46 89 4
46 95 4
46 96 2
46 98 4
47 9 4
47 18 3
47 22 2
47 33 1
47 34 3
47 40 1
47 43 2
47 72 3
47 74 2
47 76 1
48 3 1
48 16 4
48 24 1
48 30 2
48 33 1
48 46 1
48 53 2
48 67 4
48 71 4
48 89 0
49 0 4
49 2 2
49 6 2
49 10 2
49 35 2
49 47 4
49 55 0
49 56 0
49 65 0
49 70 1
50 1 1
50 21 0
50 34 4
50 37 2
50 45 2
50 51 1
50 66 1
50 83 0
50 96 3
50 97 4
51 6 3
51 23 1
51 33 2
51 44 3
51 74 3
51 76 4
51 83 1
51 86 1
51 87 3
51 92 4
52 6 4
52 9 4
52 15 0
52 36 3
52 38 3
52 41 4
52 51 2
52 59 1
52 74 3
52 92 0
53 13 2
53 15 2
53 23 2
53 24 1
53 25 0
53 33 0
53 48 2
53 52 3
53 69 2
53 89 1
54 6 2
54 10 1
54 27 1
54 29 2
54 32 3
54 33 2
54 35 3
54 45 1
54 58 3
54 84 1
55 10 2
55 16 1
55 33 1
55 53 2
55 69 2
55 76 2
55 83 4
55 87 3
55 88 2
55 90 0
56 13 3
56 36 3
56 41 0
56 47 0
56 54 3
56 55 0
56 69 1
56 75 1
56 81 3
56 85 3
57 2 3
57 6 0
57 8 2
57 18 3
57 24 0
57 53 3
57 62 4
57 65 2
57 88 4
57 96 3
58 12 3
58 16 1
58 18 4
58 28 3
58 34 1
58 61 2
58 68 1
58 74 4
58 84 3
58 93 2
59 13 3
59 22 2
59 27 4
59 29 2
59 30 1
59 33 0
59 47 0
59 68 1
59 72 2
59 77 2
60 4 2
60 7 3
60 13 1
60 46 1
60 53 2
60 63 0
60 70 1
60 71 0
60 76 4
60 96 1
61 2 4
61 5 3
61 14 0
61 16 2
61 23 1
61 34 4
61 51 1
61 71 1
61 76 2
61 79 2
62 0 4
62 7 3
62 19 0
62 32 0
62 46 4
62 56 0
62 63 1
62 89 1
62 93 3
62 94 2
63 10 0
63 51 0
63 58 1
63 60 0
63 68 4
63 69 0
63 83 3
63 87 1
63 89 3
63 91 4
64 2 2
64 14 4
64 21 3
64 32 4
64 37 4
64 51 0
64 54 0
64 56 1
64 73 1
64 94 3
65 6 4
65 10 2
65 14 2
65 43 4
65 44 4
65 47 2
65 48 2
65 54 0
65 65 4
65 82 0
66 9 2
66 13 1
66 23 4
66 26 2
66 44 4
66 55 0
66 58 1
66 60 0
66 69 1
66 89 3
67 6 1
67 27 3
67 29 0
67 46 1
67 54 4
67 66 2
67 68 0
67 74 0
67 91 4
67 94 0
68 0 2
68 23 0
68 30 4
68 65 2
68 68 1
68 75 4
68 79 0
68 90 4
68 91 1
68 98 2
69 1 2
69 6 4
69 15 0
69 22 0
69 42 2
69 49 0
69 63 4
69 68 3
69 74 0
69 97 1
70 8 3
70 12 2
70 13 3
70 23 0
70 30 0
70 40 2
70 50 0
70 80 2
70 87 3
70 90 2
71 3 4
71 5 0
71 17 0
71 19 2
71 37 1
71 46 1
71 68 1
71 75 2
71 81 4
71 85 3
72 8 1
72 10 0
72 27 1
72 40 4
72 50 3
72 55 2
72 75 4
72 92 3
72 96 2
72 98 2
73 9 1
73 11 3
73 23 1
73 29 4
73 43 1
73 47 2
73 56 1
73 67 2
73 82 4
73 84 0
74 10 2
74 15 1
74 43 2
74 48 0
74 50 1
74 63 4
74 70 0
74 71 4
74 81 2
74 84 3
75 3 1
75 9 4
75 10 2
75 18 0
75 26 2
75 60 0
75 69 4
75 79 4
75 88 3
75 89 2
76 20 1
76 31 0
76 35 1
76 55 2
76 60 4
76 64 2
76 80 1
76 82 1
76 92 0
76 93 3
77 18 3
77 26 1
77 41 0
77 50 4
77 71 3
77 74 3
77 78 4
77 85 4
77 89 2
77 97 2
78 5 2
78 15 4
78 23 4
78 39 4
78 50 3
78 64 1
78 68 0
78 87 0
78 91 3
78 97 0
79 11 1
79 18 1
79 23 1
79 30 1
79 41 4
79 64 3
79 71 4
79 78 2
79 79 4
79 93 2
80 5 0
80 10 2
80 15 0
80 40 2
80 47 3
80 51 3
80 72 2
80 73 1
80 93 1
80 94 3
81 14 2
81 21 4
81 32 1
81 35 0
81 43 1
81 66 0
81 75 1
81 86 3
81 88 2
81 95 1
82 15 3
82 21 3
82 36 4
82 46 3
82 47 4
82 49 4
82 60 4
82 80 0
82 94 4
82 97 1
83 3 4
83 4 3
83 7 4
83 18 3
83 19 4
83 40 2
83 53 2
83 61 1
83 82 1
83 99 4
84 5 4
84 8 4
84 19 0
84 36 1
84 45 4
84 56 4
84 74 1
84 80 0
84 88 1
84 97 2
85 29 0
85 43 0
85 48 2
85 49 3
85 54 4
85 62 3
85 72 0
85 74 0
85 89 0
85 90 4
86 12 1
86 39 3
86 42 3
86 50 2
86 68 3
86 76 0
86 81 3
86 89 3
86 94 0
86 99 0
87 6 2
87 7 3
87 24 2
87 57 0
87 60 4
87 61 0
87 80 2
87 81 3
87 94 2
87 95 1
88 0 1
88 1 2
88 4 3
88 6 4
88 12 0
88 41 1
88 62 0
88 67 4
88 81 2
88 91 3
89 8 0
89 16 2
89 23 1
89 26 2
89 27 0
89 28 1
89 37 2
89 41 3
89 47 3
89 61 1
90 3 1
90 4 3
90 14 2
90 24 4
90 28 4
90 54 3
90 64 4
90 70 1
90 93 4
90 98 2
91 15 2
91 17 1
91 24 4
91 37 2
91 45 0
91 48 3
91 62 4
91 63 1
91 79 2
91 97 1
92 1 0
92 6 4
92 9 1
92 18 1
92 20 0
92 38 4
92 67 2
92 78 4
92 81 4
92 91 4
93 4 1
93 9 0
93 20 0
93 28 4
93 37 2
93 38 2
93 49 2
93 77 3
93 88 2
93 90 3
94 3 2
94 11 3
94 14 1
94 22 4
94 23 3
94 33 4
94 43 0
94 63 4
94 83 0
94 99 4
95 27 0
95 35 4
95 37 0
95 45 4
95 50 4
95 57 3
95 59 4
95 61 4
95 74 1
95 82 4
96 10 1
96 21 0
96 44 2
96 57 3
96 61 1
96 66 1
96 77 4
96 80 2
96 83 0
96 98 0
97 2 1
97 3 3
97 32 0
97 34 2
97 42 3
97 50 1
97 52 2
97 87 3
97 91 1
97 92 3
98 15 1
98 18 0
98 24 4
98 31 4
98 33 2
98 34 1
98 52 2
98 55 0
98 74 2
98 99 0
99 7 4
99 12 4
99 13 3
99 28 1
99 46 0
99 73 0
99 75 0
99 80 2
99 94 3
99 97 2
